qbf_easy_train/easy_5677_SAT.qdimacs
p cnf 23 55
a 17 12 13 0
e 1 2 3 4 5 6 7 8 9 10 11 14 15 16 18 19 20 21 22 23 0
3 -1 0
3 2 0
1 -2 -3 0
-3 -4 -5 0
3 4 -5 0
-3 4 5 0
3 -4 5 0
-8 6 0
-8 -7 0
-6 7 8 0
8 9 -10 0
-8 -9 -10 0
8 -9 10 0
-8 9 10 0
-8 -2 -11 0
8 2 -11 0
-8 2 11 0
8 -2 11 0
14 11 0
14 -13 0
-11 13 -14 0
15 -14 0
15 -3 0
14 3 -15 0
16 -12 0
16 -15 0
12 15 -16 0
-17 11 0
-17 16 0
-11 -16 17 0
10 -17 -18 0
-10 17 -18 0
10 17 18 0
-10 -17 18 0
-19 -5 0
-19 -18 0
5 18 19 0
20 14 0
20 -1 0
-14 1 -20 0
9 21 0
-9 21 0
22 20 0
22 21 0
-20 -21 -22 0
-19 22 -23 0
19 -22 -23 0
-19 -22 23 0
19 22 23 0
-23 -18 17 5 16 -7 0
-3 -13 -4 5 -6 0
11 7 -1 -17 4 -10 13 0
20 -19 -21 0
22 -6 1 -12 9 -11 14 0
23 0
