sat_easy_train/easy_5677_SAT.dimacs
p cnf 72 207
3 -1 0
3 -2 0
1 2 -3 0
4 -5 0
-4 -5 0
6 -3 0
6 5 0
3 -5 -6 0
-8 -7 0
-8 -5 0
7 5 8 0
9 -1 0
9 8 0
1 -8 -9 0
-10 -11 -12 0
10 11 -12 0
-10 11 12 0
10 -11 12 0
13 9 0
13 -12 0
-9 12 -13 0
16 -15 0
16 -2 0
15 2 -16 0
7 -16 -17 0
-7 16 -17 0
7 16 17 0
-7 -16 17 0
-18 17 0
-18 8 0
-17 -8 18 0
-19 -14 0
-19 -18 0
14 18 19 0
20 13 0
20 19 0
-13 -19 -20 0
21 -6 0
21 -20 0
6 20 -21 0
-13 2 -22 0
13 -2 -22 0
-13 -2 22 0
13 2 22 0
24 -23 0
24 15 0
23 -15 -24 0
26 -24 0
26 -25 0
24 25 -26 0
-27 -22 0
-27 26 0
22 -26 27 0
-30 13 0
-30 -29 0
-13 29 30 0
-31 -28 0
-31 30 0
28 -30 31 0
7 -31 -32 0
-7 31 -32 0
7 31 32 0
-7 -31 32 0
-33 27 0
-33 32 0
-27 -32 33 0
21 -33 -34 0
-21 33 -34 0
21 33 34 0
-21 -33 34 0
35 -12 0
35 -1 0
12 1 -35 0
36 -25 0
36 -35 0
25 35 -36 0
-37 -26 0
-37 12 0
26 -12 37 0
-11 38 -39 0
11 -38 -39 0
-11 -38 39 0
11 38 39 0
40 -37 0
40 -39 0
37 39 -40 0
-17 41 0
17 41 0
-42 -41 0
-42 3 0
41 -3 42 0
44 -43 0
44 18 0
43 -18 -44 0
-45 -11 0
-45 44 0
11 -44 45 0
-46 24 0
-46 45 0
-24 -45 46 0
47 -42 0
47 -46 0
42 46 -47 0
-40 -47 -48 0
40 47 -48 0
-40 47 48 0
40 -47 48 0
-50 -15 0
-50 49 0
15 -49 50 0
51 44 0
51 8 0
-44 -8 -51 0
14 -17 -52 0
-14 17 -52 0
14 17 52 0
-14 -17 52 0
-53 51 0
-53 -52 0
-51 52 53 0
-50 53 -54 0
50 -53 -54 0
-50 -53 54 0
50 53 54 0
-55 48 0
-55 -54 0
-48 54 55 0
57 -44 0
57 -3 0
44 3 -57 0
-58 56 0
-58 57 0
-56 -57 58 0
59 29 0
59 18 0
-29 -18 -59 0
60 -58 0
60 -59 0
58 59 -60 0
25 38 -61 0
-25 -38 -61 0
25 -38 61 0
-25 38 61 0
-62 -3 0
-62 61 0
3 -61 62 0
-63 60 0
-63 62 0
-60 -62 63 0
-64 49 0
-64 13 0
-49 -13 64 0
-65 -63 0
-65 64 0
63 -64 65 0
66 55 0
66 -65 0
-55 65 -66 0
36 66 -67 0
-36 -66 -67 0
36 -66 67 0
-36 66 67 0
-68 -38 0
-68 15 0
38 -15 68 0
69 68 0
69 29 0
-68 -29 -69 0
-4 69 -70 0
4 -69 -70 0
-4 -69 70 0
4 69 70 0
-67 -70 -71 0
67 70 -71 0
-67 70 71 0
67 -70 71 0
72 -34 0
72 -71 0
34 71 -72 0
-24 -53 0
-46 15 -50 0
-4 -72 -51 -33 0
28 -27 70 0
22 -4 28 -25 -72 -57 0
-71 -58 0
-47 11 30 62 -60 -70 0
-24 -53 -6 0
-67 55 -36 11 -27 0
50 26 -48 0
-39 56 -6 0
-43 42 -38 -6 0
60 27 0
24 26 66 72 -37 16 0
32 23 62 14 -30 0
64 3 33 -34 -26 0
-20 -23 0
-36 -71 18 0
-10 -6 47 0
-1 -43 -71 62 -33 0
-33 72 0
57 53 -21 18 -26 0
34 -58 -37 0
-44 69 40 -59 0
58 -2 -27 0
42 50 -60 0
-59 -63 15 -20 71 -60 0
72 0
